g3 3 1 0	# problem trimlon4
 24 24 1 0 0	# vars, constraints, objectives, ranges, eqns
 4 0	# nonlinear constraints, objectives
 0 0	# network constraints: nonlinear, linear
 20 0 0	# nonlinear vars in constraints, objectives, both
 0 0 0 1	# linear network variables; functions; arith, flags
 4 0 0 20 0	# discrete variables: binary, integer, nonlinear (b,c,o)
 96 8	# nonzeros in Jacobian, gradients
 0 0	# max name lengths: constraints, variables
 0 0 0 0 0	# common exprs: b,c,o,c1,o1
C0
o16
o54
4
o2
v0
v4
o2
v1
v5
o2
v2
v6
o2
v3
v7
C1
o16
o54
4
o2
v0
v8
o2
v1
v9
o2
v2
v10
o2
v3
v11
C2
o16
o54
4
o2
v0
v12
o2
v1
v13
o2
v2
v14
o2
v3
v15
C3
o16
o54
4
o2
v0
v16
o2
v1
v17
o2
v2
v18
o2
v3
v19
C4
n0
C5
n0
C6
n0
C7
n0
C8
n0
C9
n0
C10
n0
C11
n0
C12
n0
C13
n0
C14
n0
C15
n0
C16
n0
C17
n0
C18
n0
C19
n0
C20
n0
C21
n0
C22
n0
C23
n0
O0 0
n0
x20
0 1
1 1
2 1
3 1
4 1
5 1
6 1
7 1
8 1
9 1
10 1
11 1
12 1
13 1
14 1
15 1
16 1
17 1
18 1
19 1
r
1 -8
1 -7
1 -12
1 -11
1 1900
1 1900
1 1900
1 1900
1 -1700
1 -1700
1 -1700
1 -1700
1 5
1 5
1 5
1 5
1 0
1 0
1 0
1 0
1 0
1 0
1 0
1 0
b
0 0 12
0 0 12
0 0 12
0 0 12
0 0 5
0 0 5
0 0 5
0 0 5
0 0 5
0 0 5
0 0 5
0 0 5
0 0 5
0 0 5
0 0 5
0 0 5
0 0 5
0 0 5
0 0 5
0 0 5
0 0 1
0 0 1
0 0 1
0 0 1
k23
6
12
18
24
28
32
36
40
44
48
52
56
60
64
68
72
76
80
84
88
90
92
94
J0 8
0 0
1 0
2 0
3 0
4 0
5 0
6 0
7 0
J1 8
0 0
1 0
2 0
3 0
8 0
9 0
10 0
11 0
J2 8
0 0
1 0
2 0
3 0
12 0
13 0
14 0
15 0
J3 8
0 0
1 0
2 0
3 0
16 0
17 0
18 0
19 0
J4 4
4 330
8 360
12 385
16 415
J5 4
5 330
9 360
13 385
17 415
J6 4
6 330
10 360
14 385
18 415
J7 4
7 330
11 360
15 385
19 415
J8 4
4 -330
8 -360
12 -385
16 -415
J9 4
5 -330
9 -360
13 -385
17 -415
J10 4
6 -330
10 -360
14 -385
18 -415
J11 4
7 -330
11 -360
15 -385
19 -415
J12 4
4 1
8 1
12 1
16 1
J13 4
5 1
9 1
13 1
17 1
J14 4
6 1
10 1
14 1
18 1
J15 4
7 1
11 1
15 1
19 1
J16 2
0 -1
20 1
J17 2
1 -1
21 1
J18 2
2 -1
22 1
J19 2
3 -1
23 1
J20 2
0 1
20 -12
J21 2
1 1
21 -12
J22 2
2 1
22 -12
J23 2
3 1
23 -12
G0 8
0 1
1 1
2 1
3 1
20 0.1
21 0.2
22 0.3
23 0.4
